12 20
3 6 8 12
5 7 9 12
3 4 5 8 10
1 5 9 10
1 5 7 11
2 4 8 9 12
2 3 5 10 11
5 7 10 11
3 7 8 10 12
3 5 6 7 9
7 9 10 11
4 6 9 11
1 2 5 7 8
1 2 5 9
1 3 8 12
5 7 10 11 12
4 5 9 10
3 6 8 9
1 3 6 11
2 5 8 11 12
5 6 5 5 7 5 7 7 6 4 5 5 7 7 5 5 5 5 6 4
